Problem:    
Rows:       163
Columns:    57 (42 integer, 42 binary)
Non-zeros:  496
Status:     INTEGER OPTIMAL
Objective:  value = 56.578865 (MINimum)

   No.   Row name        Activity     Lower bound   Upper bound
------ ------------    ------------- ------------- -------------
     1 r.5                   1056.58             0               
     2 r.6                  -970.527      -981.206               
     3 r.7                   56.5789             0               
     4 r.8                   42.0908      -967.272               
     5 r.9                   56.5789             0               
     6 r.10                 -976.269      -984.675               
     7 r.11                  1056.58             0               
     8 r.12                 -957.909      -966.315               
     9 r.13                  1056.58             0               
    10 r.14                 -957.909      -987.383               
    11 r.15                  56.5789             0               
    12 r.16                  42.0908      -971.849               
    13 r.17                  56.5789             0               
    14 r.18                  8.40599      -998.269               
    15 r.19                  1056.58             0               
    16 r.20                 -991.594      -995.184               
    17 r.21                  1056.58             0               
    18 r.22                 -989.898      -993.488               
    19 r.23                  56.5789             0               
    20 r.24                  10.6791      -984.795               
    21 r.25                  1056.58             0               
    22 r.26                  -996.41       -996.41               
    23 r.27                  56.5789             0               
    24 r.28                   3.5899      -991.761               
    25 r.29                  1056.58             0               
    26 r.30                 -943.421      -985.512               
    27 r.31                  56.5789             0               
    28 r.32                  56.5789      -983.718               
    29 r.33                        1             1             = 
    30 r.34                        1             1             = 
    31 r.35                        1             1             = 
    32 r.36                        1             1             = 
    33 r.37                        1             1             = 
    34 r.38                        1             1             = 
    35 r.39                        1             1             = 
    36 r.40                     1001             2               
    37 r.41                    -1001         -1001               
    38 r.42                  994.257      -984.675               
    39 r.43                     1001             2               
    40 r.44                    -1001         -1001               
    41 r.45                     2000      -966.315               
    42 r.46                        2             2               
    43 r.47                       -2         -1001               
    44 r.48                 -987.383      -987.383               
    45 r.49                     1000             2               
    46 r.50                    -1000         -1001               
    47 r.51                     2000      -971.849               
    48 r.52                 -978.933      -981.206               
    49 r.53                  33.6848      -967.272               
    50 r.54                 -978.933      -981.206               
    51 r.55                  33.6848      -967.272               
    52 r.56                 -980.629      -981.206               
    53 r.57                  31.9888      -967.272               
    54 r.58                 -981.206      -981.206               
    55 r.59                  31.4117      -967.272               
    56 r.60                 -972.894      -985.512               
    57 r.61                  27.1055      -983.718               
    58 r.62                 -985.512      -985.512               
    59 r.63                  14.4881      -983.718               
    60 r.64                     1001             2               
    61 r.65                    -1001         -1001               
    62 r.66                  3005.74       18.7942               
    63 r.67                     1001             2               
    64 r.68                    -1001         -1001               
    65 r.69                     2000       32.7276               
    66 r.70                     1001             2               
    67 r.71                    -1001         -1001               
    68 r.72                  3018.36      -987.383               
    69 r.73                     1001             2               
    70 r.74                    -1001         -1001               
    71 r.75                     2000      -971.849               
    72 r.76                 -984.675      -984.675               
    73 r.77                 -966.315      -966.315               
    74 r.78                 -984.675      -984.675               
    75 r.79                 -966.315      -966.315               
    76 r.80                     1001             2               
    77 r.81                    -1001         -1001               
    78 r.82                  2986.37      -993.488               
    79 r.83                     1001             2               
    80 r.84                    -1001         -1001               
    81 r.85                  1968.59      -984.795               
    82 r.86                 -979.859      -984.675               
    83 r.87                 -961.499      -966.315               
    84 r.88                 -979.859      -984.675               
    85 r.89                 -961.499      -966.315               
    86 r.90                   32.848      -985.512               
    87 r.91                  1032.85      -983.718               
    88 r.92                 -985.512      -985.512               
    89 r.93                  14.4881      -983.718               
    90 r.94                        2             2               
    91 r.95                       -2         -1001               
    92 r.96                  987.383       18.7942               
    93 r.97                     1000             2               
    94 r.98                    -1000         -1001               
    95 r.99                     2000       32.7276               
    96 r.100                    1001             2               
    97 r.101                   -1001         -1001               
    98 r.102                  981.64       15.3249               
    99 r.103                    1001             2               
   100 r.104                   -1001         -1001               
   101 r.105                    2000       33.6848               
   102 r.106                    1001             2               
   103 r.107                   -1001         -1001               
   104 r.108                 1966.32      -998.269               
   105 r.109                    1001             2               
   106 r.110                   -1001         -1001               
   107 r.111                 1966.32      -995.184               
   108 r.112                       2             2               
   109 r.113                      -2         -1001               
   110 r.114                -31.9888      -993.488               
   111 r.115                    1000             2               
   112 r.116                   -1000         -1001               
   113 r.117                 1968.59      -984.795               
   114 r.118                -961.499      -987.383               
   115 r.119                 38.5009      -971.849               
   116 r.120                -961.499      -987.383               
   117 r.121                 38.5009      -971.849               
   118 r.122                -985.512      -985.512               
   119 r.123                 14.4881      -983.718               
   120 r.124                -985.512      -985.512               
   121 r.125                 14.4881      -983.718               
   122 r.126                    1001             2               
   123 r.127                   -1001         -1001               
   124 r.128                 2033.68       12.6174               
   125 r.129                    1001             2               
   126 r.130                   -1001         -1001               
   127 r.131                 2033.68       28.1508               
   128 r.132                    1001             2               
   129 r.133                   -1001         -1001               
   130 r.134                  2001.7      -993.488               
   131 r.135                    1001             2               
   132 r.136                   -1001         -1001               
   133 r.137                 2002.27      -984.795               
   134 r.138                 4.81609      -998.269               
   135 r.139                -995.184      -995.184               
   136 r.140                 4.81609      -998.269               
   137 r.141                -995.184      -995.184               
   138 r.142                    1001             2               
   139 r.143                   -1001         -1001               
   140 r.144                 1013.63       15.3249               
   141 r.145                    1001             2               
   142 r.146                   -1001         -1001               
   143 r.147                 2031.41       33.6848               
   144 r.148                       2             2               
   145 r.149                      -2         -1001               
   146 r.150                 31.9888       12.6174               
   147 r.151                    1000             2               
   148 r.152                   -1000         -1001               
   149 r.153                 2031.41       28.1508               
   150 r.154                    1001             2               
   151 r.155                   -1001         -1001               
   152 r.156                  1998.3        1.7315               
   153 r.157                    1001             2               
   154 r.158                   -1001         -1001               
   155 r.159                 1997.73       4.81609               
   156 r.160                -993.488      -993.488               
   157 r.161                 7.08923      -984.795               
   158 r.162                -993.488      -993.488               
   159 r.163                 7.08923      -984.795               
   160 r.164                -953.523      -985.512               
   161 r.165                 46.4768      -983.718               
   162 r.166                  -954.1      -985.512               
   163 r.167                 45.8997      -983.718               

   No. Column name       Activity     Lower bound   Upper bound
------ ------------    ------------- ------------- -------------
     1 tt                    56.5789             0               
     2 s_1_1        *              1             0             1 
     3 t_1_1                 27.1055             0               
     4 s_1_7        *              1             0             1 
     5 s_2_1        *              0             0             1 
     6 t_2_1                 14.4881             0               
     7 s_2_7        *              0             0             1 
     8 s_1_2        *              0             0             1 
     9 t_1_2                 1032.85             0               
    10 s_2_2        *              1             0             1 
    11 t_2_2                 14.4881             0               
    12 s_1_3        *              1             0             1 
    13 t_1_3                 14.4881             0               
    14 s_2_3        *              0             0             1 
    15 t_2_3                 14.4881             0               
    16 s_1_4        *              0             0             1 
    17 t_1_4                 48.1729             0               
    18 s_2_4        *              1             0             1 
    19 t_2_4                 48.1729             0               
    20 s_1_5        *              1             0             1 
    21 t_1_5                 46.4768             0               
    22 s_2_5        *              0             0             1 
    23 t_2_5                 45.8997             0               
    24 s_1_6        *              1             0             1 
    25 t_1_6                  52.989             0               
    26 s_2_6        *              0             0             1 
    27 t_2_6                  52.989             0               
    28 t_1_7                       0             0               
    29 t_2_7                       0             0               
    30 r_1_1_2      *              1             0             1 
    31 u_1_1_2      *              0             0             1 
    32 r_2_1_2      *              1             0             1 
    33 u_2_1_2      *              0             0             1 
    34 r_1_1_3      *              0             0             1 
    35 u_1_1_3      *              1             0             1 
    36 r_2_1_3      *              1             0             1 
    37 u_2_1_3      *              0             0             1 
    38 r_1_2_3      *              1             0             1 
    39 u_1_2_3      *              0             0             1 
    40 r_2_2_3      *              1             0             1 
    41 u_2_2_3      *              0             0             1 
    42 r_1_2_5      *              1             0             1 
    43 u_1_2_5      *              0             0             1 
    44 r_2_2_5      *              1             0             1 
    45 u_2_2_5      *              0             0             1 
    46 r_1_3_4      *              1             0             1 
    47 u_1_3_4      *              0             0             1 
    48 r_2_3_4      *              1             0             1 
    49 u_2_3_4      *              0             0             1 
    50 r_1_3_5      *              0             0             1 
    51 u_1_3_5      *              0             0             1 
    52 r_2_3_5      *              1             0             1 
    53 u_2_3_5      *              0             0             1 
    54 r_1_4_5      *              1             0             1 
    55 u_1_4_5      *              0             0             1 
    56 r_2_4_5      *              1             0             1 
    57 u_2_4_5      *              0             0             1 

Integer feasibility conditions:

KKT.PE: max.abs.err = 0.00e+00 on row 0
        max.rel.err = 0.00e+00 on row 0
        High quality

KKT.PB: max.abs.err = 0.00e+00 on row 0
        max.rel.err = 0.00e+00 on row 0
        High quality

End of output
